; benchmark generated from python API
(set-info :status unknown)
(declare-fun x_months () Int)
(declare-fun x_beta () Int)
(declare-fun y_months () Int)
(declare-fun y_beta () Int)
(assert
 (<= (- 1202) x_months))
(assert
 (>= 1209 x_months))
(assert
 (>= x_beta 0))
(assert
 (let ((?x3791 (+ x_months 24003)))
 (let ((?x2911 (- ?x3791 (* (div (- ?x3791 1) 12) 12))))
 (let ((?x3247 (ite (or (= ?x2911 4) (= ?x2911 6) (= ?x2911 9) (= ?x2911 11)) 30 31)))
 (let (($x4499 (and (= (mod (div (- ?x3791 1) 12) 4) 0) (and (distinct (mod (div (- ?x3791 1) 12) 100) 0) true))))
 (let ((?x2163 (ite (or $x4499 (= (mod (div (- ?x3791 1) 12) 400) 0)) 29 28)))
 (< x_beta (ite (= ?x2911 2) ?x2163 ?x3247))))))))
(assert
 (<= (- 1202) y_months))
(assert
 (>= 1209 y_months))
(assert
 (>= y_beta 0))
(assert
 (let ((?x2718 (+ y_months 24003)))
 (let ((?x4379 (- ?x2718 (* (div (- ?x2718 1) 12) 12))))
 (let ((?x545 (ite (or (= ?x4379 4) (= ?x4379 6) (= ?x4379 9) (= ?x4379 11)) 30 31)))
 (let (($x3336 (and (= (mod (div (- ?x2718 1) 12) 4) 0) (and (distinct (mod (div (- ?x2718 1) 12) 100) 0) true))))
 (let ((?x877 (ite (or $x3336 (= (mod (div (- ?x2718 1) 12) 400) 0)) 29 28)))
 (< y_beta (ite (= ?x4379 2) ?x877 ?x545))))))))
(assert
 (and (= x_months (- (+ (* 2020 12) 2) 24003)) (= 28 x_beta)))
(assert
 (let ((?x3947 (+ x_beta 1)))
 (let ((?x2317 (+ (+ x_months 12) 24003)))
 (let ((?x3582 (- ?x2317 (* (div (- ?x2317 1) 12) 12))))
 (let ((?x4568 (ite (or (= ?x3582 4) (= ?x3582 6) (= ?x3582 9) (= ?x3582 11)) 30 31)))
 (let (($x3193 (and (= (mod (div (- ?x2317 1) 12) 4) 0) (and (distinct (mod (div (- ?x2317 1) 12) 100) 0) true))))
 (let (($x4648 (or $x3193 (= (mod (div (- ?x2317 1) 12) 400) 0))))
 (let ((?x2765 (ite (= ?x3582 2) (ite $x4648 29 28) ?x4568)))
 (let ((?x1838 (ite (> 1 ?x3947) 1 (ite (> ?x3947 ?x2765) ?x2765 ?x3947))))
 (let ((?x3801 (ite (> 1 ?x1838) 1 (ite (> ?x1838 ?x2765) ?x2765 ?x1838))))
 (let ((?x3971 (ite (= 2 ?x3582) (ite $x4648 31 31) (ite (= 1 ?x3582) (ite $x4648 0 0) 0))))
 (let ((?x2125 (ite (= 4 ?x3582) (ite $x4648 91 90) (ite (= 3 ?x3582) (ite $x4648 60 59) ?x3971))))
 (let ((?x1415 (ite (= 6 ?x3582) (ite $x4648 152 151) (ite (= 5 ?x3582) (ite $x4648 121 120) ?x2125))))
 (let ((?x2300 (ite (= 8 ?x3582) (ite $x4648 213 212) (ite (= 7 ?x3582) (ite $x4648 182 181) ?x1415))))
 (let ((?x2502 (ite (= 10 ?x3582) (ite $x4648 274 273) (ite (= 9 ?x3582) (ite $x4648 244 243) ?x2300))))
 (let ((?x4595 (ite (= 12 ?x3582) (ite $x4648 335 334) (ite (= 11 ?x3582) (ite $x4648 305 304) ?x2502))))
 (let ((?x3355 (+ (* 365 (- (div (- ?x2317 1) 12) 1)) (div (- (div (- ?x2317 1) 12) 1) 4))))
 (let ((?x2305 (+ (- ?x3355 (div (- (div (- ?x2317 1) 12) 1) 100)) (div (- (div (- ?x2317 1) 12) 1) 400))))
 (let ((?x265 (+ (+ (- (+ (+ ?x2305 ?x4595) (- ?x3801 1)) 730179) 0) 730179)))
 (let ((?x4204 (mod ?x265 146097)))
 (let ((?x4217 (div ?x4204 36524)))
 (let ((?x4240 (ite (<= 4 ?x4217) 3 ?x4217)))
 (let ((?x4241 (- ?x4204 (* ?x4240 36524))))
 (let ((?x2604 (mod ?x4241 1461)))
 (let ((?x4203 (div ?x2604 365)))
 (let ((?x1004 (ite (<= 4 ?x4203) 3 ?x4203)))
 (let ((?x4128 (+ (+ (* (div ?x265 146097) 400) (* ?x4240 100)) (* (div ?x4241 1461) 4))))
 (let ((?x3724 (+ (+ ?x4128 ?x1004) 1)))
 (let (($x3659 (or (and (= (mod ?x3724 4) 0) (and (distinct (mod ?x3724 100) 0) true)) (= (mod ?x3724 400) 0))))
 (let ((?x2812 (- ?x2604 (* ?x1004 365))))
 (let ((?x3374 (ite $x3659 31 31)))
 (let (($x1605 (>= ?x2812 ?x3374)))
 (let ((?x1626 (ite $x1605 (+ (- ?x2812 ?x3374) 1) (+ (- ?x2812 (ite $x3659 0 0)) 1))))
 (let ((?x2222 (ite $x3659 60 59)))
 (let (($x1688 (>= ?x2812 ?x2222)))
 (let ((?x2118 (ite $x3659 91 90)))
 (let (($x2271 (>= ?x2812 ?x2118)))
 (let ((?x3316 (ite $x2271 (+ (- ?x2812 ?x2118) 1) (ite $x1688 (+ (- ?x2812 ?x2222) 1) ?x1626))))
 (let ((?x4402 (ite $x3659 121 120)))
 (let (($x3447 (>= ?x2812 ?x4402)))
 (let ((?x3830 (ite $x3659 152 151)))
 (let (($x4112 (>= ?x2812 ?x3830)))
 (let ((?x3816 (ite $x4112 (+ (- ?x2812 ?x3830) 1) (ite $x3447 (+ (- ?x2812 ?x4402) 1) ?x3316))))
 (let ((?x3841 (ite $x3659 182 181)))
 (let (($x3163 (>= ?x2812 ?x3841)))
 (let ((?x4126 (ite $x3659 213 212)))
 (let (($x3647 (>= ?x2812 ?x4126)))
 (let ((?x4242 (ite $x3647 (+ (- ?x2812 ?x4126) 1) (ite $x3163 (+ (- ?x2812 ?x3841) 1) ?x3816))))
 (let ((?x3395 (ite $x3659 244 243)))
 (let (($x4403 (>= ?x2812 ?x3395)))
 (let ((?x4247 (ite $x3659 274 273)))
 (let (($x426 (>= ?x2812 ?x4247)))
 (let ((?x1194 (ite $x426 (+ (- ?x2812 ?x4247) 1) (ite $x4403 (+ (- ?x2812 ?x3395) 1) ?x4242))))
 (let ((?x3078 (ite $x3659 305 304)))
 (let (($x3898 (>= ?x2812 ?x3078)))
 (let ((?x4546 (ite $x3659 335 334)))
 (let (($x3756 (>= ?x2812 ?x4546)))
 (let ((?x3820 (ite $x3756 (+ (- ?x2812 ?x4546) 1) (ite $x3898 (+ (- ?x2812 ?x3078) 1) ?x1194))))
 (let (($x682 (= 0 0)))
 (let ((?x4325 (ite $x3447 5 (ite $x2271 4 (ite $x1688 3 (ite $x1605 2 1))))))
 (let ((?x1086 (ite $x4403 9 (ite $x3647 8 (ite $x3163 7 (ite $x4112 6 ?x4325))))))
 (let ((?x3368 (+ (* (ite $x682 (div (- ?x2317 1) 12) ?x3724) 12) (ite $x682 ?x3582 (ite $x3756 12 (ite $x3898 11 (ite $x426 10 ?x1086)))))))
 (and (= y_months (- ?x3368 24003)) (= y_beta (- (ite $x682 ?x3801 ?x3820) 1)))))))))))))))))))))))))))))))))))))))))))))))))))))))))))))))))
(assert
 (let (($x2825 (and (= y_months (- (+ (* 2021 12) 2) 24003)) (= 27 y_beta))))
(not $x2825)))
(check-sat)
